data/MCDM/NO_CORR/GEN_FROM_60/19_ITEMS_1000_GEN/K5019W19.KNP.mps
NAME          BLANK   
ROWS
 N  OBJROW
 L  R0000000
COLUMNS
    C0000000  OBJROW     -298.         R0000000  532.        
    C0000001  OBJROW     -688.         R0000000  638.        
    C0000002  OBJROW     -344.         R0000000  244.        
    C0000003  OBJROW     -982.         R0000000  420.        
    C0000004  OBJROW     -449.         R0000000  912.        
    C0000005  OBJROW     -538.         R0000000  426.        
    C0000006  OBJROW     -192.         R0000000  266.        
    C0000007  OBJROW     -290.         R0000000  358.        
    C0000008  OBJROW     -47.          R0000000  729.        
    C0000009  OBJROW     -226.         R0000000  42.         
    C0000010  OBJROW     -200.         R0000000  713.        
    C0000011  OBJROW     -131.         R0000000  42.         
    C0000012  OBJROW     -830.         R0000000  703.        
    C0000013  OBJROW     -413.         R0000000  124.        
    C0000014  OBJROW     -997.         R0000000  652.        
    C0000015  OBJROW     -783.         R0000000  234.        
    C0000016  OBJROW     -68.          R0000000  488.        
    C0000017  OBJROW     -155.         R0000000  417.        
    C0000018  OBJROW     -513.         R0000000  221.        
RHS
    RHS       R0000000  14458.      
BOUNDS
 BV BOUND     C0000000  1.          
 BV BOUND     C0000001  1.          
 BV BOUND     C0000002  1.          
 BV BOUND     C0000003  1.          
 BV BOUND     C0000004  1.          
 BV BOUND     C0000005  1.          
 BV BOUND     C0000006  1.          
 BV BOUND     C0000007  1.          
 BV BOUND     C0000008  1.          
 BV BOUND     C0000009  1.          
 BV BOUND     C0000010  1.          
 BV BOUND     C0000011  1.          
 BV BOUND     C0000012  1.          
 BV BOUND     C0000013  1.          
 BV BOUND     C0000014  1.          
 BV BOUND     C0000015  1.          
 BV BOUND     C0000016  1.          
 BV BOUND     C0000017  1.          
 BV BOUND     C0000018  1.          
ENDATA
