data/MCDM/NO_CORR/GEN_FROM_60/19_ITEMS_1000_GEN/K5019W19.KNP.txt
N 19
M 20
LC 19
LC 20
LC 21
LC 22
LC 23
LC 24
LC 25
LC 26
LC 27
LC 28
LC 29
LC 30
LC 31
LC 32
LC 33
LC 34
LC 35
LC 36
LC 37
LR 1
LR 2
LR 3
LR 4
LR 5
LR 6
LR 7
LR 8
LR 9
LR 10
LR 11
LR 12
LR 13
LR 14
LR 15
LR 16
LR 17
LR 18
LR 19
LR 20
LO -298
LO -688
LO -344
LO -982
LO -449
LO -538
LO -192
LO -290
LO -47
LO -226
LO -200
LO -131
LO -830
LO -413
LO -997
LO -783
LO -68
LO -155
LO -513
OS 1
IC 228
IC 951
IC 411
IC 85
IC 477
IC 420
IC 309
IC 58
IC 528
IC 939
IC 254
IC 61
IC 160
IC 891
IC 643
IC 379
IC 968
IC 430
IC 837
IB 4515
